# ---- DISCLAIMER ----
# throughout this document there are several instances
# of something like {p_VAR}. you shall replace those things
# by hand, although their whole purpose is to be easily editable
# through the use of python. the syntax is as follows:
# <edited file contents as string> = <old file contents as string>.format(p_VAR1=<value1>,p_VAR2=<value2>,...)
# --------------------

# global variables
variable        seed equal {p_SEED}
variable        temp equal 300
variable        mass equal 40
variable        r_stride equal {p_STRIDE}       # number of steps between resets. works only with sharp resetting, of course
variable        xi equal 3.0                    # describe initial state
variable        yi equal 0.0                    # "_"
variable    simulation equal 1000000000
variable    ts equal 1
variable    thermos equal 100.0

# setup
units           real
atom_style      atomic
timestep        ${ts}
dimension       2
atom_modify     map yes
region          box block -1000 1000 -1000 1000 -0.1 0.1
create_box      1 box
create_atoms    1 single ${xi} ${yi} 0.0
mass            1 ${mass}
fix             1 all nve
fix             2 all langevin ${temp} ${temp} ${thermos} ${seed}
pair_style      none
fix             pl all plumed plumedfile plumed.dat outfile log.plumed

# set external forces
variable expx atom exp(-100*((x/10)^2))
variable expy atom 0.75*exp(-400*((y/100)^2))
variable fx atom 7.15392*(200*x*v_expx*(1-v_expy)/10-6*(x/10)^5)/10
variable fy atom -7.15392*(800*y*v_expx*v_expy/100+(6*(y/100)^5))/100
fix		harm all addforce v_fx v_fy 0.0
fix		3 all enforce2d		# use only if thw system is 2d
variable test file random
next test
{p_RCOND}

# velocity and position asignment
variable        sigma equal (9.118366e-4)*sqrt(${temp}/${mass})		# units vudu magic for Maxwell-Boltzmann distribution
variable	t equal step*dt	# reset output handling
print " " file restart.dat

# initial setup + reset point
label reset	# start here after a reset
variable        vx equal normal(0.0,${sigma},${seed})
variable        vy equal normal(0.0,${sigma},${seed})
set		atom 1 x ${xi} y ${yi} vx ${vx} vy ${vy}

# main run
run ${simulation}		# run until first passege (will be stopped by plumed)
variable	x equal x[1]	# required to check the condition
variable	y equal y[1]	# "_"
# if the termination condition is met - end the simulation
if "(${x} >= -10 && ${x} <= -1)" then quit
print "restart" append restart.dat
unfix cond
next test
print ${test}
fix cond all halt ${test} v_check < 0.0 error continue
shell rm log.plumed
shell rm pass.dat
unfix           pl 
fix		pl all plumed plumedfile plumed.dat outfile log.plumed
jump SELF reset
